p tw 256 3840
0 1
0 2
0 3
0 4
0 5
0 6
0 7
0 8
0 9
0 10
0 11
0 12
0 13
0 14
0 15
0 16
0 17
0 18
0 19
0 20
0 21
0 22
0 23
0 24
0 25
0 26
0 27
0 28
0 29
0 30
1 2
1 3
1 4
1 5
1 6
1 7
1 8
1 9
1 10
1 11
1 12
1 13
1 14
1 15
1 31
1 76
1 109
1 121
1 138
1 156
1 157
1 158
1 159
1 160
1 161
1 162
1 163
1 164
1 165
2 3
2 4
2 5
2 6
2 7
2 8
2 9
2 10
2 11
2 12
2 13
2 14
2 15
2 32
2 86
2 87
2 88
2 89
2 90
2 91
2 92
2 93
2 94
2 95
2 96
2 97
2 98
2 99
3 4
3 5
3 6
3 7
3 8
3 9
3 10
3 11
3 12
3 13
3 14
3 15
3 33
3 75
3 105
3 118
3 136
3 146
3 147
3 148
3 149
3 150
3 151
3 152
3 153
3 154
3 155
4 5
4 6
4 7
4 8
4 9
4 10
4 11
4 12
4 13
4 14
4 15
4 34
4 77
4 100
4 113
4 135
4 176
4 193
4 194
4 195
4 196
4 197
4 198
4 199
4 200
4 201
5 6
5 7
5 8
5 9
5 10
5 11
5 12
5 13
5 14
5 15
5 35
5 79
5 106
5 119
5 137
5 166
5 167
5 168
5 169
5 170
5 171
5 172
5 173
5 174
5 175
6 7
6 8
6 9
6 10
6 11
6 12
6 13
6 14
6 15
6 36
6 60
6 61
6 62
6 63
6 64
6 65
6 66
6 67
6 68
6 69
6 70
6 71
6 72
6 73
7 8
7 9
7 10
7 11
7 12
7 13
7 14
7 15
7 39
7 78
7 111
7 123
7 139
7 178
7 204
7 212
7 217
7 221
7 234
7 248
7 251
7 254
7 255
8 9
8 10
8 11
8 12
8 13
8 14
8 15
8 38
8 84
8 104
8 116
8 140
8 182
8 205
8 208
8 216
8 220
8 233
8 244
8 245
8 246
8 247
9 10
9 11
9 12
9 13
9 14
9 15
9 41
9 81
9 101
9 112
9 141
9 183
9 202
9 211
9 215
9 222
9 231
9 240
9 241
9 242
9 243
10 11
10 12
10 13
10 14
10 15
10 43
10 46
10 47
10 48
10 49
10 50
10 51
10 52
10 53
10 54
10 55
10 56
10 57
10 58
10 59
11 12
11 13
11 14
11 15
11 40
11 80
11 102
11 115
11 142
11 179
11 184
11 185
11 186
11 187
11 188
11 189
11 190
11 191
11 192
12 13
12 14
12 15
12 45
12 74
12 108
12 120
12 143
12 177
12 207
12 209
12 219
12 223
12 235
12 236
12 237
12 238
12 239
13 14
13 15
13 42
13 82
13 110
13 122
13 144
13 180
13 206
13 213
13 214
13 224
13 226
13 227
13 228
13 229
13 230
14 15
14 37
14 83
14 107
14 117
14 145
14 181
14 203
14 210
14 218
14 225
14 232
14 249
14 250
14 252
14 253
15 44
15 85
15 103
15 114
15 124
15 125
15 126
15 127
15 128
15 129
15 130
15 131
15 132
15 133
15 134
16 17
16 18
16 19
16 20
16 21
16 22
16 23
16 24
16 25
16 26
16 27
16 28
16 29
16 30
16 48
16 61
16 91
16 134
16 149
16 161
16 170
16 191
16 200
16 220
16 221
16 222
16 223
16 224
16 225
17 18
17 19
17 20
17 21
17 22
17 23
17 24
17 25
17 26
17 27
17 28
17 29
17 30
17 47
17 73
17 88
17 129
17 151
17 160
17 166
17 192
17 201
17 230
17 238
17 241
17 245
17 248
17 249
18 19
18 20
18 21
18 22
18 23
18 24
18 25
18 26
18 27
18 28
18 29
18 30
18 46
18 62
18 87
18 128
18 135
18 136
18 137
18 138
18 139
18 140
18 141
18 142
18 143
18 144
18 145
19 20
19 21
19 22
19 23
19 24
19 25
19 26
19 27
19 28
19 29
19 30
19 53
19 65
19 95
19 132
19 147
19 156
19 167
19 189
19 195
19 227
19 231
19 232
19 233
19 234
19 235
20 21
20 22
20 23
20 24
20 25
20 26
20 27
20 28
20 29
20 30
20 54
20 68
20 90
20 127
20 153
20 163
20 175
20 187
20 194
20 208
20 209
20 210
20 211
20 212
20 213
21 22
21 23
21 24
21 25
21 26
21 27
21 28
21 29
21 30
21 51
21 64
21 94
21 131
21 146
21 158
21 169
21 188
21 198
21 226
21 239
21 242
21 247
21 252
21 254
22 23
22 24
22 25
22 26
22 27
22 28
22 29
22 30
22 52
22 69
22 92
22 100
22 101
22 102
22 103
22 104
22 105
22 106
22 107
22 108
22 109
22 110
22 111
23 24
23 25
23 26
23 27
23 28
23 29
23 30
23 31
23 32
23 33
23 34
23 35
23 36
23 37
23 38
23 39
23 40
23 41
23 42
23 43
23 44
23 45
24 25
24 26
24 27
24 28
24 29
24 30
24 49
24 67
24 93
24 133
24 150
24 157
24 168
24 190
24 196
24 202
24 203
24 204
24 205
24 206
24 207
25 26
25 27
25 28
25 29
25 30
25 50
25 66
25 89
25 124
25 155
25 162
25 174
25 186
25 193
25 228
25 236
25 243
25 246
25 250
25 251
26 27
26 28
26 29
26 30
26 57
26 63
26 74
26 75
26 76
26 77
26 78
26 79
26 80
26 81
26 82
26 83
26 84
26 85
26 86
27 28
27 29
27 30
27 55
27 60
27 99
27 130
27 148
27 159
27 171
27 176
27 177
27 178
27 179
27 180
27 181
27 182
27 183
28 29
28 30
28 59
28 72
28 98
28 125
28 154
28 165
28 173
28 185
28 199
28 214
28 215
28 216
28 217
28 218
28 219
29 30
29 58
29 70
29 96
29 112
29 113
29 114
29 115
29 116
29 117
29 118
29 119
29 120
29 121
29 122
29 123
30 56
30 71
30 97
30 126
30 152
30 164
30 172
30 184
30 197
30 229
30 237
30 240
30 244
30 253
30 255
31 32
31 33
31 34
31 35
31 36
31 37
31 38
31 39
31 40
31 41
31 42
31 43
31 44
31 45
31 76
31 109
31 121
31 138
31 156
31 157
31 158
31 159
31 160
31 161
31 162
31 163
31 164
31 165
32 33
32 34
32 35
32 36
32 37
32 38
32 39
32 40
32 41
32 42
32 43
32 44
32 45
32 86
32 87
32 88
32 89
32 90
32 91
32 92
32 93
32 94
32 95
32 96
32 97
32 98
32 99
33 34
33 35
33 36
33 37
33 38
33 39
33 40
33 41
33 42
33 43
33 44
33 45
33 75
33 105
33 118
33 136
33 146
33 147
33 148
33 149
33 150
33 151
33 152
33 153
33 154
33 155
34 35
34 36
34 37
34 38
34 39
34 40
34 41
34 42
34 43
34 44
34 45
34 77
34 100
34 113
34 135
34 176
34 193
34 194
34 195
34 196
34 197
34 198
34 199
34 200
34 201
35 36
35 37
35 38
35 39
35 40
35 41
35 42
35 43
35 44
35 45
35 79
35 106
35 119
35 137
35 166
35 167
35 168
35 169
35 170
35 171
35 172
35 173
35 174
35 175
36 37
36 38
36 39
36 40
36 41
36 42
36 43
36 44
36 45
36 60
36 61
36 62
36 63
36 64
36 65
36 66
36 67
36 68
36 69
36 70
36 71
36 72
36 73
37 38
37 39
37 40
37 41
37 42
37 43
37 44
37 45
37 83
37 107
37 117
37 145
37 181
37 203
37 210
37 218
37 225
37 232
37 249
37 250
37 252
37 253
38 39
38 40
38 41
38 42
38 43
38 44
38 45
38 84
38 104
38 116
38 140
38 182
38 205
38 208
38 216
38 220
38 233
38 244
38 245
38 246
38 247
39 40
39 41
39 42
39 43
39 44
39 45
39 78
39 111
39 123
39 139
39 178
39 204
39 212
39 217
39 221
39 234
39 248
39 251
39 254
39 255
40 41
40 42
40 43
40 44
40 45
40 80
40 102
40 115
40 142
40 179
40 184
40 185
40 186
40 187
40 188
40 189
40 190
40 191
40 192
41 42
41 43
41 44
41 45
41 81
41 101
41 112
41 141
41 183
41 202
41 211
41 215
41 222
41 231
41 240
41 241
41 242
41 243
42 43
42 44
42 45
42 82
42 110
42 122
42 144
42 180
42 206
42 213
42 214
42 224
42 226
42 227
42 228
42 229
42 230
43 44
43 45
43 46
43 47
43 48
43 49
43 50
43 51
43 52
43 53
43 54
43 55
43 56
43 57
43 58
43 59
44 45
44 85
44 103
44 114
44 124
44 125
44 126
44 127
44 128
44 129
44 130
44 131
44 132
44 133
44 134
45 74
45 108
45 120
45 143
45 177
45 207
45 209
45 219
45 223
45 235
45 236
45 237
45 238
45 239
46 47
46 48
46 49
46 50
46 51
46 52
46 53
46 54
46 55
46 56
46 57
46 58
46 59
46 62
46 87
46 128
46 135
46 136
46 137
46 138
46 139
46 140
46 141
46 142
46 143
46 144
46 145
47 48
47 49
47 50
47 51
47 52
47 53
47 54
47 55
47 56
47 57
47 58
47 59
47 73
47 88
47 129
47 151
47 160
47 166
47 192
47 201
47 230
47 238
47 241
47 245
47 248
47 249
48 49
48 50
48 51
48 52
48 53
48 54
48 55
48 56
48 57
48 58
48 59
48 61
48 91
48 134
48 149
48 161
48 170
48 191
48 200
48 220
48 221
48 222
48 223
48 224
48 225
49 50
49 51
49 52
49 53
49 54
49 55
49 56
49 57
49 58
49 59
49 67
49 93
49 133
49 150
49 157
49 168
49 190
49 196
49 202
49 203
49 204
49 205
49 206
49 207
50 51
50 52
50 53
50 54
50 55
50 56
50 57
50 58
50 59
50 66
50 89
50 124
50 155
50 162
50 174
50 186
50 193
50 228
50 236
50 243
50 246
50 250
50 251
51 52
51 53
51 54
51 55
51 56
51 57
51 58
51 59
51 64
51 94
51 131
51 146
51 158
51 169
51 188
51 198
51 226
51 239
51 242
51 247
51 252
51 254
52 53
52 54
52 55
52 56
52 57
52 58
52 59
52 69
52 92
52 100
52 101
52 102
52 103
52 104
52 105
52 106
52 107
52 108
52 109
52 110
52 111
53 54
53 55
53 56
53 57
53 58
53 59
53 65
53 95
53 132
53 147
53 156
53 167
53 189
53 195
53 227
53 231
53 232
53 233
53 234
53 235
54 55
54 56
54 57
54 58
54 59
54 68
54 90
54 127
54 153
54 163
54 175
54 187
54 194
54 208
54 209
54 210
54 211
54 212
54 213
55 56
55 57
55 58
55 59
55 60
55 99
55 130
55 148
55 159
55 171
55 176
55 177
55 178
55 179
55 180
55 181
55 182
55 183
56 57
56 58
56 59
56 71
56 97
56 126
56 152
56 164
56 172
56 184
56 197
56 229
56 237
56 240
56 244
56 253
56 255
57 58
57 59
57 63
57 74
57 75
57 76
57 77
57 78
57 79
57 80
57 81
57 82
57 83
57 84
57 85
57 86
58 59
58 70
58 96
58 112
58 113
58 114
58 115
58 116
58 117
58 118
58 119
58 120
58 121
58 122
58 123
59 72
59 98
59 125
59 154
59 165
59 173
59 185
59 199
59 214
59 215
59 216
59 217
59 218
59 219
60 61
60 62
60 63
60 64
60 65
60 66
60 67
60 68
60 69
60 70
60 71
60 72
60 73
60 99
60 130
60 148
60 159
60 171
60 176
60 177
60 178
60 179
60 180
60 181
60 182
60 183
61 62
61 63
61 64
61 65
61 66
61 67
61 68
61 69
61 70
61 71
61 72
61 73
61 91
61 134
61 149
61 161
61 170
61 191
61 200
61 220
61 221
61 222
61 223
61 224
61 225
62 63
62 64
62 65
62 66
62 67
62 68
62 69
62 70
62 71
62 72
62 73
62 87
62 128
62 135
62 136
62 137
62 138
62 139
62 140
62 141
62 142
62 143
62 144
62 145
63 64
63 65
63 66
63 67
63 68
63 69
63 70
63 71
63 72
63 73
63 74
63 75
63 76
63 77
63 78
63 79
63 80
63 81
63 82
63 83
63 84
63 85
63 86
64 65
64 66
64 67
64 68
64 69
64 70
64 71
64 72
64 73
64 94
64 131
64 146
64 158
64 169
64 188
64 198
64 226
64 239
64 242
64 247
64 252
64 254
65 66
65 67
65 68
65 69
65 70
65 71
65 72
65 73
65 95
65 132
65 147
65 156
65 167
65 189
65 195
65 227
65 231
65 232
65 233
65 234
65 235
66 67
66 68
66 69
66 70
66 71
66 72
66 73
66 89
66 124
66 155
66 162
66 174
66 186
66 193
66 228
66 236
66 243
66 246
66 250
66 251
67 68
67 69
67 70
67 71
67 72
67 73
67 93
67 133
67 150
67 157
67 168
67 190
67 196
67 202
67 203
67 204
67 205
67 206
67 207
68 69
68 70
68 71
68 72
68 73
68 90
68 127
68 153
68 163
68 175
68 187
68 194
68 208
68 209
68 210
68 211
68 212
68 213
69 70
69 71
69 72
69 73
69 92
69 100
69 101
69 102
69 103
69 104
69 105
69 106
69 107
69 108
69 109
69 110
69 111
70 71
70 72
70 73
70 96
70 112
70 113
70 114
70 115
70 116
70 117
70 118
70 119
70 120
70 121
70 122
70 123
71 72
71 73
71 97
71 126
71 152
71 164
71 172
71 184
71 197
71 229
71 237
71 240
71 244
71 253
71 255
72 73
72 98
72 125
72 154
72 165
72 173
72 185
72 199
72 214
72 215
72 216
72 217
72 218
72 219
73 88
73 129
73 151
73 160
73 166
73 192
73 201
73 230
73 238
73 241
73 245
73 248
73 249
74 75
74 76
74 77
74 78
74 79
74 80
74 81
74 82
74 83
74 84
74 85
74 86
74 108
74 120
74 143
74 177
74 207
74 209
74 219
74 223
74 235
74 236
74 237
74 238
74 239
75 76
75 77
75 78
75 79
75 80
75 81
75 82
75 83
75 84
75 85
75 86
75 105
75 118
75 136
75 146
75 147
75 148
75 149
75 150
75 151
75 152
75 153
75 154
75 155
76 77
76 78
76 79
76 80
76 81
76 82
76 83
76 84
76 85
76 86
76 109
76 121
76 138
76 156
76 157
76 158
76 159
76 160
76 161
76 162
76 163
76 164
76 165
77 78
77 79
77 80
77 81
77 82
77 83
77 84
77 85
77 86
77 100
77 113
77 135
77 176
77 193
77 194
77 195
77 196
77 197
77 198
77 199
77 200
77 201
78 79
78 80
78 81
78 82
78 83
78 84
78 85
78 86
78 111
78 123
78 139
78 178
78 204
78 212
78 217
78 221
78 234
78 248
78 251
78 254
78 255
79 80
79 81
79 82
79 83
79 84
79 85
79 86
79 106
79 119
79 137
79 166
79 167
79 168
79 169
79 170
79 171
79 172
79 173
79 174
79 175
80 81
80 82
80 83
80 84
80 85
80 86
80 102
80 115
80 142
80 179
80 184
80 185
80 186
80 187
80 188
80 189
80 190
80 191
80 192
81 82
81 83
81 84
81 85
81 86
81 101
81 112
81 141
81 183
81 202
81 211
81 215
81 222
81 231
81 240
81 241
81 242
81 243
82 83
82 84
82 85
82 86
82 110
82 122
82 144
82 180
82 206
82 213
82 214
82 224
82 226
82 227
82 228
82 229
82 230
83 84
83 85
83 86
83 107
83 117
83 145
83 181
83 203
83 210
83 218
83 225
83 232
83 249
83 250
83 252
83 253
84 85
84 86
84 104
84 116
84 140
84 182
84 205
84 208
84 216
84 220
84 233
84 244
84 245
84 246
84 247
85 86
85 103
85 114
85 124
85 125
85 126
85 127
85 128
85 129
85 130
85 131
85 132
85 133
85 134
86 87
86 88
86 89
86 90
86 91
86 92
86 93
86 94
86 95
86 96
86 97
86 98
86 99
87 88
87 89
87 90
87 91
87 92
87 93
87 94
87 95
87 96
87 97
87 98
87 99
87 128
87 135
87 136
87 137
87 138
87 139
87 140
87 141
87 142
87 143
87 144
87 145
88 89
88 90
88 91
88 92
88 93
88 94
88 95
88 96
88 97
88 98
88 99
88 129
88 151
88 160
88 166
88 192
88 201
88 230
88 238
88 241
88 245
88 248
88 249
89 90
89 91
89 92
89 93
89 94
89 95
89 96
89 97
89 98
89 99
89 124
89 155
89 162
89 174
89 186
89 193
89 228
89 236
89 243
89 246
89 250
89 251
90 91
90 92
90 93
90 94
90 95
90 96
90 97
90 98
90 99
90 127
90 153
90 163
90 175
90 187
90 194
90 208
90 209
90 210
90 211
90 212
90 213
91 92
91 93
91 94
91 95
91 96
91 97
91 98
91 99
91 134
91 149
91 161
91 170
91 191
91 200
91 220
91 221
91 222
91 223
91 224
91 225
92 93
92 94
92 95
92 96
92 97
92 98
92 99
92 100
92 101
92 102
92 103
92 104
92 105
92 106
92 107
92 108
92 109
92 110
92 111
93 94
93 95
93 96
93 97
93 98
93 99
93 133
93 150
93 157
93 168
93 190
93 196
93 202
93 203
93 204
93 205
93 206
93 207
94 95
94 96
94 97
94 98
94 99
94 131
94 146
94 158
94 169
94 188
94 198
94 226
94 239
94 242
94 247
94 252
94 254
95 96
95 97
95 98
95 99
95 132
95 147
95 156
95 167
95 189
95 195
95 227
95 231
95 232
95 233
95 234
95 235
96 97
96 98
96 99
96 112
96 113
96 114
96 115
96 116
96 117
96 118
96 119
96 120
96 121
96 122
96 123
97 98
97 99
97 126
97 152
97 164
97 172
97 184
97 197
97 229
97 237
97 240
97 244
97 253
97 255
98 99
98 125
98 154
98 165
98 173
98 185
98 199
98 214
98 215
98 216
98 217
98 218
98 219
99 130
99 148
99 159
99 171
99 176
99 177
99 178
99 179
99 180
99 181
99 182
99 183
100 101
100 102
100 103
100 104
100 105
100 106
100 107
100 108
100 109
100 110
100 111
100 113
100 135
100 176
100 193
100 194
100 195
100 196
100 197
100 198
100 199
100 200
100 201
101 102
101 103
101 104
101 105
101 106
101 107
101 108
101 109
101 110
101 111
101 112
101 141
101 183
101 202
101 211
101 215
101 222
101 231
101 240
101 241
101 242
101 243
102 103
102 104
102 105
102 106
102 107
102 108
102 109
102 110
102 111
102 115
102 142
102 179
102 184
102 185
102 186
102 187
102 188
102 189
102 190
102 191
102 192
103 104
103 105
103 106
103 107
103 108
103 109
103 110
103 111
103 114
103 124
103 125
103 126
103 127
103 128
103 129
103 130
103 131
103 132
103 133
103 134
104 105
104 106
104 107
104 108
104 109
104 110
104 111
104 116
104 140
104 182
104 205
104 208
104 216
104 220
104 233
104 244
104 245
104 246
104 247
105 106
105 107
105 108
105 109
105 110
105 111
105 118
105 136
105 146
105 147
105 148
105 149
105 150
105 151
105 152
105 153
105 154
105 155
106 107
106 108
106 109
106 110
106 111
106 119
106 137
106 166
106 167
106 168
106 169
106 170
106 171
106 172
106 173
106 174
106 175
107 108
107 109
107 110
107 111
107 117
107 145
107 181
107 203
107 210
107 218
107 225
107 232
107 249
107 250
107 252
107 253
108 109
108 110
108 111
108 120
108 143
108 177
108 207
108 209
108 219
108 223
108 235
108 236
108 237
108 238
108 239
109 110
109 111
109 121
109 138
109 156
109 157
109 158
109 159
109 160
109 161
109 162
109 163
109 164
109 165
110 111
110 122
110 144
110 180
110 206
110 213
110 214
110 224
110 226
110 227
110 228
110 229
110 230
111 123
111 139
111 178
111 204
111 212
111 217
111 221
111 234
111 248
111 251
111 254
111 255
112 113
112 114
112 115
112 116
112 117
112 118
112 119
112 120
112 121
112 122
112 123
112 141
112 183
112 202
112 211
112 215
112 222
112 231
112 240
112 241
112 242
112 243
113 114
113 115
113 116
113 117
113 118
113 119
113 120
113 121
113 122
113 123
113 135
113 176
113 193
113 194
113 195
113 196
113 197
113 198
113 199
113 200
113 201
114 115
114 116
114 117
114 118
114 119
114 120
114 121
114 122
114 123
114 124
114 125
114 126
114 127
114 128
114 129
114 130
114 131
114 132
114 133
114 134
115 116
115 117
115 118
115 119
115 120
115 121
115 122
115 123
115 142
115 179
115 184
115 185
115 186
115 187
115 188
115 189
115 190
115 191
115 192
116 117
116 118
116 119
116 120
116 121
116 122
116 123
116 140
116 182
116 205
116 208
116 216
116 220
116 233
116 244
116 245
116 246
116 247
117 118
117 119
117 120
117 121
117 122
117 123
117 145
117 181
117 203
117 210
117 218
117 225
117 232
117 249
117 250
117 252
117 253
118 119
118 120
118 121
118 122
118 123
118 136
118 146
118 147
118 148
118 149
118 150
118 151
118 152
118 153
118 154
118 155
119 120
119 121
119 122
119 123
119 137
119 166
119 167
119 168
119 169
119 170
119 171
119 172
119 173
119 174
119 175
120 121
120 122
120 123
120 143
120 177
120 207
120 209
120 219
120 223
120 235
120 236
120 237
120 238
120 239
121 122
121 123
121 138
121 156
121 157
121 158
121 159
121 160
121 161
121 162
121 163
121 164
121 165
122 123
122 144
122 180
122 206
122 213
122 214
122 224
122 226
122 227
122 228
122 229
122 230
123 139
123 178
123 204
123 212
123 217
123 221
123 234
123 248
123 251
123 254
123 255
124 125
124 126
124 127
124 128
124 129
124 130
124 131
124 132
124 133
124 134
124 155
124 162
124 174
124 186
124 193
124 228
124 236
124 243
124 246
124 250
124 251
125 126
125 127
125 128
125 129
125 130
125 131
125 132
125 133
125 134
125 154
125 165
125 173
125 185
125 199
125 214
125 215
125 216
125 217
125 218
125 219
126 127
126 128
126 129
126 130
126 131
126 132
126 133
126 134
126 152
126 164
126 172
126 184
126 197
126 229
126 237
126 240
126 244
126 253
126 255
127 128
127 129
127 130
127 131
127 132
127 133
127 134
127 153
127 163
127 175
127 187
127 194
127 208
127 209
127 210
127 211
127 212
127 213
128 129
128 130
128 131
128 132
128 133
128 134
128 135
128 136
128 137
128 138
128 139
128 140
128 141
128 142
128 143
128 144
128 145
129 130
129 131
129 132
129 133
129 134
129 151
129 160
129 166
129 192
129 201
129 230
129 238
129 241
129 245
129 248
129 249
130 131
130 132
130 133
130 134
130 148
130 159
130 171
130 176
130 177
130 178
130 179
130 180
130 181
130 182
130 183
131 132
131 133
131 134
131 146
131 158
131 169
131 188
131 198
131 226
131 239
131 242
131 247
131 252
131 254
132 133
132 134
132 147
132 156
132 167
132 189
132 195
132 227
132 231
132 232
132 233
132 234
132 235
133 134
133 150
133 157
133 168
133 190
133 196
133 202
133 203
133 204
133 205
133 206
133 207
134 149
134 161
134 170
134 191
134 200
134 220
134 221
134 222
134 223
134 224
134 225
135 136
135 137
135 138
135 139
135 140
135 141
135 142
135 143
135 144
135 145
135 176
135 193
135 194
135 195
135 196
135 197
135 198
135 199
135 200
135 201
136 137
136 138
136 139
136 140
136 141
136 142
136 143
136 144
136 145
136 146
136 147
136 148
136 149
136 150
136 151
136 152
136 153
136 154
136 155
137 138
137 139
137 140
137 141
137 142
137 143
137 144
137 145
137 166
137 167
137 168
137 169
137 170
137 171
137 172
137 173
137 174
137 175
138 139
138 140
138 141
138 142
138 143
138 144
138 145
138 156
138 157
138 158
138 159
138 160
138 161
138 162
138 163
138 164
138 165
139 140
139 141
139 142
139 143
139 144
139 145
139 178
139 204
139 212
139 217
139 221
139 234
139 248
139 251
139 254
139 255
140 141
140 142
140 143
140 144
140 145
140 182
140 205
140 208
140 216
140 220
140 233
140 244
140 245
140 246
140 247
141 142
141 143
141 144
141 145
141 183
141 202
141 211
141 215
141 222
141 231
141 240
141 241
141 242
141 243
142 143
142 144
142 145
142 179
142 184
142 185
142 186
142 187
142 188
142 189
142 190
142 191
142 192
143 144
143 145
143 177
143 207
143 209
143 219
143 223
143 235
143 236
143 237
143 238
143 239
144 145
144 180
144 206
144 213
144 214
144 224
144 226
144 227
144 228
144 229
144 230
145 181
145 203
145 210
145 218
145 225
145 232
145 249
145 250
145 252
145 253
146 147
146 148
146 149
146 150
146 151
146 152
146 153
146 154
146 155
146 158
146 169
146 188
146 198
146 226
146 239
146 242
146 247
146 252
146 254
147 148
147 149
147 150
147 151
147 152
147 153
147 154
147 155
147 156
147 167
147 189
147 195
147 227
147 231
147 232
147 233
147 234
147 235
148 149
148 150
148 151
148 152
148 153
148 154
148 155
148 159
148 171
148 176
148 177
148 178
148 179
148 180
148 181
148 182
148 183
149 150
149 151
149 152
149 153
149 154
149 155
149 161
149 170
149 191
149 200
149 220
149 221
149 222
149 223
149 224
149 225
150 151
150 152
150 153
150 154
150 155
150 157
150 168
150 190
150 196
150 202
150 203
150 204
150 205
150 206
150 207
151 152
151 153
151 154
151 155
151 160
151 166
151 192
151 201
151 230
151 238
151 241
151 245
151 248
151 249
152 153
152 154
152 155
152 164
152 172
152 184
152 197
152 229
152 237
152 240
152 244
152 253
152 255
153 154
153 155
153 163
153 175
153 187
153 194
153 208
153 209
153 210
153 211
153 212
153 213
154 155
154 165
154 173
154 185
154 199
154 214
154 215
154 216
154 217
154 218
154 219
155 162
155 174
155 186
155 193
155 228
155 236
155 243
155 246
155 250
155 251
156 157
156 158
156 159
156 160
156 161
156 162
156 163
156 164
156 165
156 167
156 189
156 195
156 227
156 231
156 232
156 233
156 234
156 235
157 158
157 159
157 160
157 161
157 162
157 163
157 164
157 165
157 168
157 190
157 196
157 202
157 203
157 204
157 205
157 206
157 207
158 159
158 160
158 161
158 162
158 163
158 164
158 165
158 169
158 188
158 198
158 226
158 239
158 242
158 247
158 252
158 254
159 160
159 161
159 162
159 163
159 164
159 165
159 171
159 176
159 177
159 178
159 179
159 180
159 181
159 182
159 183
160 161
160 162
160 163
160 164
160 165
160 166
160 192
160 201
160 230
160 238
160 241
160 245
160 248
160 249
161 162
161 163
161 164
161 165
161 170
161 191
161 200
161 220
161 221
161 222
161 223
161 224
161 225
162 163
162 164
162 165
162 174
162 186
162 193
162 228
162 236
162 243
162 246
162 250
162 251
163 164
163 165
163 175
163 187
163 194
163 208
163 209
163 210
163 211
163 212
163 213
164 165
164 172
164 184
164 197
164 229
164 237
164 240
164 244
164 253
164 255
165 173
165 185
165 199
165 214
165 215
165 216
165 217
165 218
165 219
166 167
166 168
166 169
166 170
166 171
166 172
166 173
166 174
166 175
166 192
166 201
166 230
166 238
166 241
166 245
166 248
166 249
167 168
167 169
167 170
167 171
167 172
167 173
167 174
167 175
167 189
167 195
167 227
167 231
167 232
167 233
167 234
167 235
168 169
168 170
168 171
168 172
168 173
168 174
168 175
168 190
168 196
168 202
168 203
168 204
168 205
168 206
168 207
169 170
169 171
169 172
169 173
169 174
169 175
169 188
169 198
169 226
169 239
169 242
169 247
169 252
169 254
170 171
170 172
170 173
170 174
170 175
170 191
170 200
170 220
170 221
170 222
170 223
170 224
170 225
171 172
171 173
171 174
171 175
171 176
171 177
171 178
171 179
171 180
171 181
171 182
171 183
172 173
172 174
172 175
172 184
172 197
172 229
172 237
172 240
172 244
172 253
172 255
173 174
173 175
173 185
173 199
173 214
173 215
173 216
173 217
173 218
173 219
174 175
174 186
174 193
174 228
174 236
174 243
174 246
174 250
174 251
175 187
175 194
175 208
175 209
175 210
175 211
175 212
175 213
176 177
176 178
176 179
176 180
176 181
176 182
176 183
176 193
176 194
176 195
176 196
176 197
176 198
176 199
176 200
176 201
177 178
177 179
177 180
177 181
177 182
177 183
177 207
177 209
177 219
177 223
177 235
177 236
177 237
177 238
177 239
178 179
178 180
178 181
178 182
178 183
178 204
178 212
178 217
178 221
178 234
178 248
178 251
178 254
178 255
179 180
179 181
179 182
179 183
179 184
179 185
179 186
179 187
179 188
179 189
179 190
179 191
179 192
180 181
180 182
180 183
180 206
180 213
180 214
180 224
180 226
180 227
180 228
180 229
180 230
181 182
181 183
181 203
181 210
181 218
181 225
181 232
181 249
181 250
181 252
181 253
182 183
182 205
182 208
182 216
182 220
182 233
182 244
182 245
182 246
182 247
183 202
183 211
183 215
183 222
183 231
183 240
183 241
183 242
183 243
184 185
184 186
184 187
184 188
184 189
184 190
184 191
184 192
184 197
184 229
184 237
184 240
184 244
184 253
184 255
185 186
185 187
185 188
185 189
185 190
185 191
185 192
185 199
185 214
185 215
185 216
185 217
185 218
185 219
186 187
186 188
186 189
186 190
186 191
186 192
186 193
186 228
186 236
186 243
186 246
186 250
186 251
187 188
187 189
187 190
187 191
187 192
187 194
187 208
187 209
187 210
187 211
187 212
187 213
188 189
188 190
188 191
188 192
188 198
188 226
188 239
188 242
188 247
188 252
188 254
189 190
189 191
189 192
189 195
189 227
189 231
189 232
189 233
189 234
189 235
190 191
190 192
190 196
190 202
190 203
190 204
190 205
190 206
190 207
191 192
191 200
191 220
191 221
191 222
191 223
191 224
191 225
192 201
192 230
192 238
192 241
192 245
192 248
192 249
193 194
193 195
193 196
193 197
193 198
193 199
193 200
193 201
193 228
193 236
193 243
193 246
193 250
193 251
194 195
194 196
194 197
194 198
194 199
194 200
194 201
194 208
194 209
194 210
194 211
194 212
194 213
195 196
195 197
195 198
195 199
195 200
195 201
195 227
195 231
195 232
195 233
195 234
195 235
196 197
196 198
196 199
196 200
196 201
196 202
196 203
196 204
196 205
196 206
196 207
197 198
197 199
197 200
197 201
197 229
197 237
197 240
197 244
197 253
197 255
198 199
198 200
198 201
198 226
198 239
198 242
198 247
198 252
198 254
199 200
199 201
199 214
199 215
199 216
199 217
199 218
199 219
200 201
200 220
200 221
200 222
200 223
200 224
200 225
201 230
201 238
201 241
201 245
201 248
201 249
202 203
202 204
202 205
202 206
202 207
202 211
202 215
202 222
202 231
202 240
202 241
202 242
202 243
203 204
203 205
203 206
203 207
203 210
203 218
203 225
203 232
203 249
203 250
203 252
203 253
204 205
204 206
204 207
204 212
204 217
204 221
204 234
204 248
204 251
204 254
204 255
205 206
205 207
205 208
205 216
205 220
205 233
205 244
205 245
205 246
205 247
206 207
206 213
206 214
206 224
206 226
206 227
206 228
206 229
206 230
207 209
207 219
207 223
207 235
207 236
207 237
207 238
207 239
208 209
208 210
208 211
208 212
208 213
208 216
208 220
208 233
208 244
208 245
208 246
208 247
209 210
209 211
209 212
209 213
209 219
209 223
209 235
209 236
209 237
209 238
209 239
210 211
210 212
210 213
210 218
210 225
210 232
210 249
210 250
210 252
210 253
211 212
211 213
211 215
211 222
211 231
211 240
211 241
211 242
211 243
212 213
212 217
212 221
212 234
212 248
212 251
212 254
212 255
213 214
213 224
213 226
213 227
213 228
213 229
213 230
214 215
214 216
214 217
214 218
214 219
214 224
214 226
214 227
214 228
214 229
214 230
215 216
215 217
215 218
215 219
215 222
215 231
215 240
215 241
215 242
215 243
216 217
216 218
216 219
216 220
216 233
216 244
216 245
216 246
216 247
217 218
217 219
217 221
217 234
217 248
217 251
217 254
217 255
218 219
218 225
218 232
218 249
218 250
218 252
218 253
219 223
219 235
219 236
219 237
219 238
219 239
220 221
220 222
220 223
220 224
220 225
220 233
220 244
220 245
220 246
220 247
221 222
221 223
221 224
221 225
221 234
221 248
221 251
221 254
221 255
222 223
222 224
222 225
222 231
222 240
222 241
222 242
222 243
223 224
223 225
223 235
223 236
223 237
223 238
223 239
224 225
224 226
224 227
224 228
224 229
224 230
225 232
225 249
225 250
225 252
225 253
226 227
226 228
226 229
226 230
226 239
226 242
226 247
226 252
226 254
227 228
227 229
227 230
227 231
227 232
227 233
227 234
227 235
228 229
228 230
228 236
228 243
228 246
228 250
228 251
229 230
229 237
229 240
229 244
229 253
229 255
230 238
230 241
230 245
230 248
230 249
231 232
231 233
231 234
231 235
231 240
231 241
231 242
231 243
232 233
232 234
232 235
232 249
232 250
232 252
232 253
233 234
233 235
233 244
233 245
233 246
233 247
234 235
234 248
234 251
234 254
234 255
235 236
235 237
235 238
235 239
236 237
236 238
236 239
236 243
236 246
236 250
236 251
237 238
237 239
237 240
237 244
237 253
237 255
238 239
238 241
238 245
238 248
238 249
239 242
239 247
239 252
239 254
240 241
240 242
240 243
240 244
240 253
240 255
241 242
241 243
241 245
241 248
241 249
242 243
242 247
242 252
242 254
243 246
243 250
243 251
244 245
244 246
244 247
244 253
244 255
245 246
245 247
245 248
245 249
246 247
246 250
246 251
247 252
247 254
248 249
248 251
248 254
248 255
249 250
249 252
249 253
250 251
250 252
250 253
251 254
251 255
252 253
252 254
253 255
254 255
